Problem:    ArquivoGLPKSiris271x140
Rows:       272
Columns:    140 (140 integer, 140 binary)
Non-zeros:  15415
Status:     INTEGER OPTIMAL
Objective:  cost = 7 (MINimum)

   No.   Row name        Activity     Lower bound   Upper bound
------ ------------    ------------- ------------- -------------
     1 cost                        7                             
     2 covers[Z1]                  4             2               
     3 covers[Z2]                  4             2               
     4 covers[Z3]                  3             2               
     5 covers[Z4]                  3             2               
     6 covers[Z5]                  4             2               
     7 covers[Z6]                  4             2               
     8 covers[Z7]                  3             2               
     9 covers[Z8]                  3             2               
    10 covers[Z9]                  2             2               
    11 covers[Z10]                 4             2               
    12 covers[Z11]                 4             2               
    13 covers[Z12]                 3             2               
    14 covers[Z13]                 3             2               
    15 covers[Z14]                 2             2               
    16 covers[Z15]                 5             2               
    17 covers[Z16]                 3             2               
    18 covers[Z17]                 3             2               
    19 covers[Z18]                 3             2               
    20 covers[Z19]                 3             2               
    21 covers[Z20]                 3             2               
    22 covers[Z21]                 2             2               
    23 covers[Z22]                 2             2               
    24 covers[Z23]                 4             2               
    25 covers[Z24]                 4             2               
    26 covers[Z25]                 4             2               
    27 covers[Z26]                 3             2               
    28 covers[Z27]                 3             2               
    29 covers[Z28]                 3             2               
    30 covers[Z29]                 3             2               
    31 covers[Z30]                 2             2               
    32 covers[Z31]                 4             2               
    33 covers[Z32]                 4             2               
    34 covers[Z33]                 3             2               
    35 covers[Z34]                 3             2               
    36 covers[Z35]                 2             2               
    37 covers[Z36]                 2             2               
    38 covers[Z37]                 4             2               
    39 covers[Z38]                 3             2               
    40 covers[Z39]                 2             2               
    41 covers[Z40]                 3             2               
    42 covers[Z41]                 3             2               
    43 covers[Z42]                 3             2               
    44 covers[Z43]                 2             2               
    45 covers[Z44]                 3             2               
    46 covers[Z45]                 4             2               
    47 covers[Z46]                 3             2               
    48 covers[Z47]                 3             2               
    49 covers[Z48]                 4             2               
    50 covers[Z49]                 4             2               
    51 covers[Z50]                 2             2               
    52 covers[Z51]                 3             2               
    53 covers[Z52]                 2             2               
    54 covers[Z53]                 2             2               
    55 covers[Z54]                 2             2               
    56 covers[Z55]                 4             2               
    57 covers[Z56]                 2             2               
    58 covers[Z57]                 3             2               
    59 covers[Z58]                 3             2               
    60 covers[Z59]                 4             2               
    61 covers[Z60]                 3             2               
    62 covers[Z61]                 3             2               
    63 covers[Z62]                 3             2               
    64 covers[Z63]                 3             2               
    65 covers[Z64]                 3             2               
    66 covers[Z65]                 2             2               
    67 covers[Z66]                 2             2               
    68 covers[Z67]                 3             2               
    69 covers[Z68]                 3             2               
    70 covers[Z69]                 2             2               
    71 covers[Z70]                 2             2               
    72 covers[Z71]                 3             2               
    73 covers[Z72]                 3             2               
    74 covers[Z73]                 3             2               
    75 covers[Z74]                 3             2               
    76 covers[Z75]                 3             2               
    77 covers[Z76]                 3             2               
    78 covers[Z77]                 3             2               
    79 covers[Z78]                 2             2               
    80 covers[Z79]                 2             2               
    81 covers[Z80]                 2             2               
    82 covers[Z81]                 2             2               
    83 covers[Z82]                 2             2               
    84 covers[Z83]                 2             2               
    85 covers[Z84]                 2             2               
    86 covers[Z85]                 2             2               
    87 covers[Z86]                 3             2               
    88 covers[Z87]                 2             2               
    89 covers[Z88]                 2             2               
    90 covers[Z89]                 2             2               
    91 covers[Z90]                 2             2               
    92 covers[Z91]                 2             2               
    93 covers[Z92]                 2             2               
    94 covers[Z93]                 2             2               
    95 covers[Z94]                 2             2               
    96 covers[Z95]                 2             2               
    97 covers[Z96]                 3             2               
    98 covers[Z97]                 4             2               
    99 covers[Z98]                 3             2               
   100 covers[Z99]                 3             2               
   101 covers[Z100]                3             2               
   102 covers[Z101]                3             2               
   103 covers[Z102]                3             2               
   104 covers[Z103]                3             2               
   105 covers[Z104]                3             2               
   106 covers[Z105]                3             2               
   107 covers[Z106]                3             2               
   108 covers[Z107]                3             2               
   109 covers[Z108]                3             2               
   110 covers[Z109]                3             2               
   111 covers[Z110]                3             2               
   112 covers[Z111]                3             2               
   113 covers[Z112]                3             2               
   114 covers[Z113]                2             2               
   115 covers[Z114]                2             2               
   116 covers[Z115]                2             2               
   117 covers[Z116]                2             2               
   118 covers[Z117]                2             2               
   119 covers[Z118]                2             2               
   120 covers[Z119]                2             2               
   121 covers[Z120]                3             2               
   122 covers[Z121]                3             2               
   123 covers[Z122]                3             2               
   124 covers[Z123]                2             2               
   125 covers[Z124]                2             2               
   126 covers[Z125]                2             2               
   127 covers[Z126]                2             2               
   128 covers[Z127]                2             2               
   129 covers[Z128]                2             2               
   130 covers[Z129]                3             2               
   131 covers[Z130]                4             2               
   132 covers[Z131]                3             2               
   133 covers[Z132]                3             2               
   134 covers[Z133]                3             2               
   135 covers[Z134]                2             2               
   136 covers[Z135]                2             2               
   137 covers[Z136]                3             2               
   138 covers[Z137]                4             2               
   139 covers[Z138]                3             2               
   140 covers[Z139]                3             2               
   141 covers[Z140]                3             2               
   142 covers[Z141]                2             2               
   143 covers[Z142]                2             2               
   144 covers[Z143]                2             2               
   145 covers[Z144]                2             2               
   146 covers[Z145]                2             2               
   147 covers[Z146]                2             2               
   148 covers[Z147]                2             2               
   149 covers[Z148]                2             2               
   150 covers[Z149]                2             2               
   151 covers[Z150]                3             2               
   152 covers[Z151]                3             2               
   153 covers[Z152]                3             2               
   154 covers[Z153]                4             2               
   155 covers[Z154]                4             2               
   156 covers[Z155]                2             2               
   157 covers[Z156]                2             2               
   158 covers[Z157]                4             2               
   159 covers[Z158]                4             2               
   160 covers[Z159]                3             2               
   161 covers[Z160]                2             2               
   162 covers[Z161]                3             2               
   163 covers[Z162]                3             2               
   164 covers[Z163]                4             2               
   165 covers[Z164]                2             2               
   166 covers[Z165]                4             2               
   167 covers[Z166]                2             2               
   168 covers[Z167]                2             2               
   169 covers[Z168]                2             2               
   170 covers[Z169]                2             2               
   171 covers[Z170]                2             2               
   172 covers[Z171]                2             2               
   173 covers[Z172]                2             2               
   174 covers[Z173]                2             2               
   175 covers[Z174]                2             2               
   176 covers[Z175]                2             2               
   177 covers[Z176]                2             2               
   178 covers[Z177]                2             2               
   179 covers[Z178]                2             2               
   180 covers[Z179]                2             2               
   181 covers[Z180]                2             2               
   182 covers[Z181]                2             2               
   183 covers[Z182]                2             2               
   184 covers[Z183]                2             2               
   185 covers[Z184]                2             2               
   186 covers[Z185]                2             2               
   187 covers[Z186]                2             2               
   188 covers[Z187]                2             2               
   189 covers[Z188]                2             2               
   190 covers[Z189]                2             2               
   191 covers[Z190]                2             2               
   192 covers[Z191]                2             2               
   193 covers[Z192]                2             2               
   194 covers[Z193]                2             2               
   195 covers[Z194]                2             2               
   196 covers[Z195]                2             2               
   197 covers[Z196]                2             2               
   198 covers[Z197]                2             2               
   199 covers[Z198]                2             2               
   200 covers[Z199]                2             2               
   201 covers[Z200]                2             2               
   202 covers[Z201]                2             2               
   203 covers[Z202]                2             2               
   204 covers[Z203]                2             2               
   205 covers[Z204]                2             2               
   206 covers[Z205]                2             2               
   207 covers[Z206]                2             2               
   208 covers[Z207]                2             2               
   209 covers[Z208]                2             2               
   210 covers[Z209]                2             2               
   211 covers[Z210]                2             2               
   212 covers[Z211]                2             2               
   213 covers[Z212]                4             2               
   214 covers[Z213]                3             2               
   215 covers[Z214]                2             2               
   216 covers[Z215]                2             2               
   217 covers[Z216]                2             2               
   218 covers[Z217]                3             2               
   219 covers[Z218]                3             2               
   220 covers[Z219]                3             2               
   221 covers[Z220]                3             2               
   222 covers[Z221]                2             2               
   223 covers[Z222]                2             2               
   224 covers[Z223]                2             2               
   225 covers[Z224]                2             2               
   226 covers[Z225]                2             2               
   227 covers[Z226]                2             2               
   228 covers[Z227]                2             2               
   229 covers[Z228]                2             2               
   230 covers[Z229]                2             2               
   231 covers[Z230]                2             2               
   232 covers[Z231]                2             2               
   233 covers[Z232]                2             2               
   234 covers[Z233]                2             2               
   235 covers[Z234]                2             2               
   236 covers[Z235]                2             2               
   237 covers[Z236]                2             2               
   238 covers[Z237]                2             2               
   239 covers[Z238]                2             2               
   240 covers[Z239]                2             2               
   241 covers[Z240]                2             2               
   242 covers[Z241]                2             2               
   243 covers[Z242]                2             2               
   244 covers[Z243]                2             2               
   245 covers[Z244]                2             2               
   246 covers[Z245]                2             2               
   247 covers[Z246]                3             2               
   248 covers[Z247]                2             2               
   249 covers[Z248]                2             2               
   250 covers[Z249]                2             2               
   251 covers[Z250]                2             2               
   252 covers[Z251]                2             2               
   253 covers[Z252]                2             2               
   254 covers[Z253]                2             2               
   255 covers[Z254]                2             2               
   256 covers[Z255]                2             2               
   257 covers[Z256]                3             2               
   258 covers[Z257]                3             2               
   259 covers[Z258]                3             2               
   260 covers[Z259]                3             2               
   261 covers[Z260]                3             2               
   262 covers[Z261]                2             2               
   263 covers[Z262]                2             2               
   264 covers[Z263]                2             2               
   265 covers[Z264]                2             2               
   266 covers[Z265]                2             2               
   267 covers[Z266]                2             2               
   268 covers[Z267]                2             2               
   269 covers[Z268]                2             2               
   270 covers[Z269]                2             2               
   271 covers[Z270]                2             2               
   272 covers[Z271]                2             2               

   No. Column name       Activity     Lower bound   Upper bound
------ ------------    ------------- ------------- -------------
     1 Route[Y1]    *              0             0             1 
     2 Route[Y2]    *              0             0             1 
     3 Route[Y3]    *              0             0             1 
     4 Route[Y4]    *              0             0             1 
     5 Route[Y5]    *              0             0             1 
     6 Route[Y6]    *              0             0             1 
     7 Route[Y7]    *              0             0             1 
     8 Route[Y8]    *              0             0             1 
     9 Route[Y9]    *              0             0             1 
    10 Route[Y10]   *              0             0             1 
    11 Route[Y11]   *              0             0             1 
    12 Route[Y12]   *              0             0             1 
    13 Route[Y13]   *              0             0             1 
    14 Route[Y14]   *              0             0             1 
    15 Route[Y15]   *              0             0             1 
    16 Route[Y16]   *              0             0             1 
    17 Route[Y17]   *              0             0             1 
    18 Route[Y18]   *              0             0             1 
    19 Route[Y19]   *              0             0             1 
    20 Route[Y20]   *              0             0             1 
    21 Route[Y21]   *              1             0             1 
    22 Route[Y22]   *              0             0             1 
    23 Route[Y23]   *              0             0             1 
    24 Route[Y24]   *              0             0             1 
    25 Route[Y25]   *              0             0             1 
    26 Route[Y26]   *              0             0             1 
    27 Route[Y27]   *              0             0             1 
    28 Route[Y28]   *              0             0             1 
    29 Route[Y29]   *              0             0             1 
    30 Route[Y30]   *              0             0             1 
    31 Route[Y31]   *              0             0             1 
    32 Route[Y32]   *              0             0             1 
    33 Route[Y33]   *              0             0             1 
    34 Route[Y34]   *              0             0             1 
    35 Route[Y35]   *              0             0             1 
    36 Route[Y36]   *              0             0             1 
    37 Route[Y37]   *              0             0             1 
    38 Route[Y38]   *              0             0             1 
    39 Route[Y39]   *              0             0             1 
    40 Route[Y40]   *              0             0             1 
    41 Route[Y41]   *              1             0             1 
    42 Route[Y42]   *              0             0             1 
    43 Route[Y43]   *              0             0             1 
    44 Route[Y44]   *              0             0             1 
    45 Route[Y45]   *              0             0             1 
    46 Route[Y46]   *              0             0             1 
    47 Route[Y47]   *              0             0             1 
    48 Route[Y48]   *              0             0             1 
    49 Route[Y49]   *              0             0             1 
    50 Route[Y50]   *              0             0             1 
    51 Route[Y51]   *              0             0             1 
    52 Route[Y52]   *              0             0             1 
    53 Route[Y53]   *              0             0             1 
    54 Route[Y54]   *              0             0             1 
    55 Route[Y55]   *              0             0             1 
    56 Route[Y56]   *              0             0             1 
    57 Route[Y57]   *              0             0             1 
    58 Route[Y58]   *              1             0             1 
    59 Route[Y59]   *              0             0             1 
    60 Route[Y60]   *              1             0             1 
    61 Route[Y61]   *              0             0             1 
    62 Route[Y62]   *              0             0             1 
    63 Route[Y63]   *              0             0             1 
    64 Route[Y64]   *              0             0             1 
    65 Route[Y65]   *              0             0             1 
    66 Route[Y66]   *              0             0             1 
    67 Route[Y67]   *              0             0             1 
    68 Route[Y68]   *              0             0             1 
    69 Route[Y69]   *              0             0             1 
    70 Route[Y70]   *              0             0             1 
    71 Route[Y71]   *              0             0             1 
    72 Route[Y72]   *              0             0             1 
    73 Route[Y73]   *              0             0             1 
    74 Route[Y74]   *              0             0             1 
    75 Route[Y75]   *              1             0             1 
    76 Route[Y76]   *              0             0             1 
    77 Route[Y77]   *              0             0             1 
    78 Route[Y78]   *              0             0             1 
    79 Route[Y79]   *              0             0             1 
    80 Route[Y80]   *              0             0             1 
    81 Route[Y81]   *              0             0             1 
    82 Route[Y82]   *              0             0             1 
    83 Route[Y83]   *              0             0             1 
    84 Route[Y84]   *              0             0             1 
    85 Route[Y85]   *              0             0             1 
    86 Route[Y86]   *              0             0             1 
    87 Route[Y87]   *              0             0             1 
    88 Route[Y88]   *              0             0             1 
    89 Route[Y89]   *              0             0             1 
    90 Route[Y90]   *              0             0             1 
    91 Route[Y91]   *              0             0             1 
    92 Route[Y92]   *              0             0             1 
    93 Route[Y93]   *              0             0             1 
    94 Route[Y94]   *              0             0             1 
    95 Route[Y95]   *              0             0             1 
    96 Route[Y96]   *              0             0             1 
    97 Route[Y97]   *              1             0             1 
    98 Route[Y98]   *              0             0             1 
    99 Route[Y99]   *              0             0             1 
   100 Route[Y100]  *              0             0             1 
   101 Route[Y101]  *              0             0             1 
   102 Route[Y102]  *              0             0             1 
   103 Route[Y103]  *              0             0             1 
   104 Route[Y104]  *              1             0             1 
   105 Route[Y105]  *              0             0             1 
   106 Route[Y106]  *              0             0             1 
   107 Route[Y107]  *              0             0             1 
   108 Route[Y108]  *              0             0             1 
   109 Route[Y109]  *              0             0             1 
   110 Route[Y110]  *              0             0             1 
   111 Route[Y111]  *              0             0             1 
   112 Route[Y112]  *              0             0             1 
   113 Route[Y113]  *              0             0             1 
   114 Route[Y114]  *              0             0             1 
   115 Route[Y115]  *              0             0             1 
   116 Route[Y116]  *              0             0             1 
   117 Route[Y117]  *              0             0             1 
   118 Route[Y118]  *              0             0             1 
   119 Route[Y119]  *              0             0             1 
   120 Route[Y120]  *              0             0             1 
   121 Route[Y121]  *              0             0             1 
   122 Route[Y122]  *              0             0             1 
   123 Route[Y123]  *              0             0             1 
   124 Route[Y124]  *              0             0             1 
   125 Route[Y125]  *              0             0             1 
   126 Route[Y126]  *              0             0             1 
   127 Route[Y127]  *              0             0             1 
   128 Route[Y128]  *              0             0             1 
   129 Route[Y129]  *              0             0             1 
   130 Route[Y130]  *              0             0             1 
   131 Route[Y131]  *              0             0             1 
   132 Route[Y132]  *              0             0             1 
   133 Route[Y133]  *              0             0             1 
   134 Route[Y134]  *              0             0             1 
   135 Route[Y135]  *              0             0             1 
   136 Route[Y136]  *              0             0             1 
   137 Route[Y137]  *              0             0             1 
   138 Route[Y138]  *              0             0             1 
   139 Route[Y139]  *              0             0             1 
   140 Route[Y140]  *              0             0             1 

Integer feasibility conditions:

KKT.PE: max.abs.err = 0.00e+000 on row 0
        max.rel.err = 0.00e+000 on row 0
        High quality

KKT.PB: max.abs.err = 0.00e+000 on row 0
        max.rel.err = 0.00e+000 on row 0
        High quality

End of output
